Geometry = GenFormat {
720 C
C
1 1  7.28043574 -0.92716433 -11.07985491
2 1  6.0844267 -1.33891841 -11.73944654
3 1  5.38195799 -0.16732481 -12.15047651
4 1  6.143818090000001 0.96851398 -11.74491601
5 1  7.3171418 0.49890745 -11.08323541
6 1  13.17041023 -1.4911756 0.97176577
7 1  13.24258651 -1.05527326 -0.38463368
8 1  13.27929219 0.3707984 -0.38801363
9 1  13.22980157 0.81625722 0.9662965399999999
10 1  13.16250939 -0.33450592 1.80668643
11 1  4.69543896 -11.90743031 -3.57680101
12 1  5.5067891 -11.21705062 -4.52555083
13 1  6.70279837 -10.80529608 -3.86595937
14 1  6.63062244 -11.24119853 -2.50956006
15 1  5.39000637 -11.92235521 -2.33085018
16 1  -6.51296883 -5.98065547 -9.92171371
17 1  -5.26746954 -6.014360160000001 -10.61643319
18 1  -4.56500082 -7.18595387 -10.20540311
19 1  -5.37635101 -7.87633369 -9.25665345
20 1  -6.58026133 -7.13141844 -9.08132386
21 1  -4.96517269 8.09854776 -9.29451967
22 1  -4.19052845 7.36285596 -10.23988924
23 1  -4.952388269999999 6.22701687 -10.64545025
24 1  -6.19788786 6.26072145 -9.95073096
25 1  -6.20578927 7.41739128 -9.1158101
26 1  7.19982563 10.87319949 -2.56197889
27 1  7.24931611 10.42774036 -3.91628939
28 1  6.075992150000001 10.897347170000002 -4.57796948
29 1  5.30134821 11.6330388 -3.63260002
30 1  5.99591534 11.61811496 -2.3866495
31 1  -7.28042729 0.92716795 11.07986339
32 1  -7.31713307 -0.49890377 11.08324417
33 1  -6.14380959 -0.96851029 11.74492481
34 1  -5.38194999 0.16732885 12.150485139999999
35 1  -6.08441809 1.33892263 11.73945435
36 1  -13.16250116 0.33450998 -1.8066775
37 1  -13.22979377 -0.81625287 -0.96628738
38 1  -13.27928418 -0.37079397000000003 0.38802281
39 1  -13.24257823 1.05527765 0.38464241
40 1  -13.17040274 1.49117932 -0.97175718
41 1  -5.99590649 -11.61811003 2.38665812
42 1  -5.30133916 -11.63303425 3.63260871
43 1  -6.07598385 -10.89734269 4.57797818
44 1  -7.24930742 -10.42773651 3.91629768
45 1  -7.19981733 -10.87319516 2.56198749
46 1  6.20579776 -7.417387420000001 9.11581936
47 1  6.19789624 -6.26071793 9.95074021
48 1  4.9523968599999995 -6.2270132 10.64545922
49 1  4.19053702 -7.3628522 10.23989818
50 1  4.9651812 -8.09854382 9.29452899
51 1  6.58026901 7.1314229 9.08133243
52 1  5.37635887 7.87633857 9.256662279999999
53 1  4.56500885 7.18595841 10.2054112
54 1  5.26747717 6.01436481 10.6164416
55 1  6.51297665 5.98066011 9.92172258
56 1  -5.38999801 11.92235962 2.33085883
57 1  -6.63061424 11.24120336 2.5095683800000006
58 1  -6.70278993 10.80530094 3.8659679
59 1  -5.50678079 11.21705466 4.52555903
60 1  -4.69543075 11.90743455 3.57680922
61 1  7.23969313 -2.95346957 -9.73114528
62 1  7.08914074 -4.90424907 -8.24011682
63 1  6.97285585 -6.89283188 -6.78787664
64 1  6.89140639 -8.90949085 -5.38152554
65 1  12.05344511 -3.05690228 -1.09598013
66 1  10.68628491 -4.981539859999999 -1.78736555
67 1  9.3697501 -6.94433232 -2.48819724
68 1  8.11027885 -8.93568021 -3.1950467
69 1  12.17153456 -1.03746551 -2.57075361
70 1  10.91850626 -1.01034759 -4.68748637
71 1  9.71825673 -0.9845578 -6.84055756
72 1  8.576655 -0.96022227 -9.01943908
73 1  8.67105332 -3.06462419 -7.70587399
74 1  9.92163162 -3.1051126 -5.56809531
75 1  11.08255631 -3.11643961 -3.37999003
76 1  8.59353244 -5.08514653 -6.27508322
77 1  9.80432463 -5.111162389999999 -4.10309855
78 1  8.43741652 -7.06001974 -4.78807789
79 1  11.31744613 -3.74366808 -2.10728412
80 1  9.9838264 -5.69362595 -2.80901309
81 1  8.68527292 -7.66791628 -3.50846914
82 1  7.34396399 -9.60705166 -4.20903121
83 1  11.43487024 -1.73560609 -3.57375079
84 1  10.21658542 -1.71323892 -5.71584832
85 1  9.03518854 -1.68404432 -7.87842771
86 1  7.80848963 -1.66324474 -10.01030929
87 1  7.70575716 -3.66606483 -8.58612548
88 1  9.08848767 -3.76318957 -6.53359176
89 1  10.29794091 -3.78917655 -4.3640087
90 1  7.58138209 -5.64200593 -7.11864789
91 1  8.9713102 -5.76702092 -5.07021459
92 1  7.47326606 -7.64187461 -5.6826332
93 1  12.60313838 -1.76626712 -1.40941409
94 1  6.03600983 -3.36786629 -10.39496935
95 1  5.88526242 -5.31871303 -8.90404871
96 1  5.76897716 -7.3072954 -7.45180843
97 1  5.68772278 -9.32388774 -6.04534945
98 1  -2.56218147 -8.08867569 -9.15640499
99 1  -0.53985889 -8.84640469 -7.97851337
100 1  1.48770886 -9.65791158 -6.83509364
101 1  3.51060588 -10.51922662 -5.73173721
102 1  -2.44409191 -6.06923934 -10.63117836
103 1  -0.30763786 -4.87521267 -10.87863399
104 1  1.83621504 -3.69813671 -11.18745483
105 1  3.97698204 -2.54376817 -11.55613035
106 1  3.93876862 -4.69382487 -10.31570045
107 1  1.79346313 -5.90342767 -10.05073024
108 1  -0.36859295 -7.05876856 -9.69522681
109 1  3.83884118 -6.72206252 -8.89726733
110 1  1.67615643 -7.90947742 -8.58573362
111 1  3.70513242 -8.68922192 -7.39790443
112 1  -1.1470667 -8.03487115 -8.9813841
113 1  0.88191886 -8.82717307 -7.82865846
114 1  2.90668805 -9.65733122 -6.69532321
115 1  4.93265089 -10.43720387 -5.53885541
116 1  -1.02964204 -6.02680896 -10.44785068
117 1  1.11467781 -4.84678578 -10.73549404
118 1  3.25660352 -3.67345851 -11.06528257
119 1  5.39717612 -2.49339596 -11.34013404
120 1  5.30403389 -4.49291497 -9.91066169
121 1  3.19860102 -5.79092256 -9.78182887
122 1  1.03830713 -6.97702506 -9.47063928
123 1  5.17310018 -6.47111417 -8.44680131
124 1  3.0814237400000004 -7.79475512 -8.3184518
125 1  5.07154275 -8.46872524 -7.00716912
126 1  -3.16689279 -7.19547131 -10.106485139999998
127 1  3.27000606 -1.36465633 -11.96979736
128 1  1.1291245 -2.51883329 -11.60118889
129 1  -1.01472843 -3.69590946 -11.29236821
130 1  -3.15106791 -4.89012772 -11.04484609
131 1  -5.0737927 3.7980409700000006 -10.75466114
132 1  -5.10589833 1.33906582 -10.69316137
133 1  -5.1693276 -1.12526521 -10.68731941
134 1  -5.26377126 -3.58289952 -10.73716561
135 1  -2.89667616 4.99338023 -11.068273690000002
136 1  -0.8246303 3.68968303 -11.30987524
137 1  1.25579317 2.40242766 -11.61285379
138 1  3.33441953 1.13791052 -11.97572937
139 1  1.15928942 -0.05814287 -11.94203479
140 1  -0.93518965 1.24018181 -11.6906585
141 1  -3.02063057 2.52816865 -11.3332987
142 1  -0.99917638 -1.24579596 -11.6847658
143 1  -3.09787371 0.0527663 -11.37912512
144 1  -3.14807123 -2.42308674 -11.32156229
145 1  -4.41426745 2.5527354 -10.97897817
146 1  -4.46403118 0.08893124000000001 -10.95669367
147 1  -4.54108313 -2.37424825 -10.96729942
148 1  -4.58316271 -4.83338209 -10.93517655
149 1  -2.24941332 3.74134202 -11.29082423
150 1  -0.1728502 2.44499121 -11.57483518
151 1  1.91001647 1.16770843 -11.89657581
152 1  3.98090562 -0.1313066 -12.16882505
153 1  1.8459656 -1.32076244 -11.89067711
154 1  -0.26078915 -0.02126941 -11.8059944
155 1  -2.35716598 1.27585709 -11.500691550000003
156 1  -0.29981217 -2.48766529 -11.56314293
157 1  -2.42108192 -1.20737185 -11.49480531
158 1  -2.44028026 -3.67411316 -11.27324668
159 1  -4.32978052 5.01090244 -10.9585115
160 1  4.10116785 2.28103814 -11.56756643
161 1  2.02266553 3.54574065 -11.20462511
162 1  -0.05775782 4.8329959 -10.90164577
163 1  -2.12992789 6.13650776 -10.66010978
164 1  4.04640657 10.29743165 -5.7810793
165 1  1.9817442099999998 9.53610454 -6.88058933
166 1  -0.08502533 8.82457072 -8.02039926
167 1  -2.14379392 8.16630977 -9.194935
168 1  6.15910974 8.99020442 -6.08876025
169 1  6.13634428 6.9654615 -7.48563865
170 1  6.149998509999999 4.96667257 -8.92842839
171 1  6.20000533 3.00361216 -10.41007159
172 1  4.1737632 4.43606624 -10.33734091
173 1  4.17848072 6.47345497 -8.92854402
174 1  4.14632968 8.45196961 -7.43853408
175 1  2.09355701 5.75567061 -10.07836561
176 1  2.07978308 7.77201675 -8.62290322
177 1  -0.0061578 7.02237742 -9.72860385
178 1  3.39883179 9.46318966 -6.74064465
179 1  1.33389891 8.73293247 -7.87028121
180 1  -0.7332996 8.04060647 -9.01948839
181 1  -2.79377001 7.30090536 -10.14084664
182 1  5.49963524 8.16332565 -7.04659229
183 1  5.49811855 6.15633722 -8.47673167
184 1  5.52693436 4.16710898 -9.93118853
185 1  5.51691644 2.15869615 -11.35116096
186 1  3.4399186 3.44860457 -11.08216375
187 1  3.49107937 5.5723047 -9.8087624
188 1  3.47732029 7.58642178 -8.35490935
189 1  1.36122943 4.7321155 -10.75819888
190 1  1.39470186 6.86943098 -9.50345957
191 1  -0.71951161 6.02223717 -10.47641069
192 1  5.46237228 10.14327643 -5.58763795
193 1  8.61359653 0.47500037 -9.02284148
194 1  9.75520417 0.45089724 -6.84396056
195 1  10.95545411 0.42510749 -4.6908888
196 1  12.20847616 0.39775686 -2.57415524
197 1  8.55883533 8.49139338 -3.23635509
198 1  9.71428338 6.44126161 -2.51992641
199 1  10.92818755 4.41668305 -1.80964345
200 1  12.1946104 2.42755841 -1.10898012
201 1  7.33996265 8.51758416 -5.422833899999999
202 1  7.31738862 6.49276474 -6.819604559999999
203 1  7.33104244 4.49397557 -8.26239386
204 1  7.3808577 2.53099221 -9.7441451
205 1  8.81628846 2.57795911 -7.71924915
206 1  8.84298882 4.60654971 -6.29805629
207 1  8.78885574 6.59386176 -4.82044273
208 1  10.06755471 2.56418686 -5.58153419
209 1  10.05378102 4.58053302 -4.12607191
210 1  11.22779242 2.52614239 -3.3933657
211 1  9.06781224 7.19425775 -3.5436983699999995
212 1  10.26316666 5.1591153 -2.83473883
213 1  11.49479327 3.14647911 -2.1236163599999998
214 1  12.6771419 1.10888369 -1.41622924
215 1  7.85580478 7.22030079 -5.7178616
216 1  7.86072219 5.21073721 -7.14437277
217 1  7.88310331 3.22408435 -8.60245761
218 1  7.88249316 1.21190681 -10.01712496
219 1  9.10889834 1.17967276 -7.88521652
220 1  9.26925014 3.25967116 -6.55023889
221 1  9.2554916 5.27378723 -5.0963857
222 1  10.29049645 1.15829807 -5.72265509
223 1  10.478703810000003 3.23368301 -4.38065621
224 1  11.50858068 1.12811034 -3.58053898
225 1  7.82794937 9.19648695 -4.25360194
226 1  11.98080602 -3.49560159 0.26912287
227 1  10.61363441 -5.42031008 -0.42204118
228 1  9.29709966 -7.38310265 -1.12287254
229 1  8.03764012 -9.37437948 -1.82994312
230 1  6.357681330000001 -8.28033851 6.84451194
231 1  6.41167519 -8.99577484 4.49151256
232 1  6.49719748 -9.76555206 2.15118893
233 1  6.61382957 -10.58590631 -0.16501291
234 1  7.69464292 -6.28709107 7.556216920000001
235 1  9.040791 -5.0760827 5.89106927
236 1  10.44284756 -3.88306745 4.25157697
237 1  11.89395755 -2.71388053 2.6457585000000003
238 1  10.79697723 -4.84118744 1.98691763
239 1  9.43112009 -6.06753745 3.6501015899999993
240 1  7.98000945 -7.23815585 5.28093346
241 1  9.51739331 -6.84407648 1.28922114
242 1  8.10302152 -8.047572 2.94311481
243 1  8.15183772 -8.78476803 0.57883047
244 1  6.95355942 -8.20893086 5.54994336
245 1  7.03210828 -8.95932376 3.20387379
246 1  7.12454549 -9.74796156 0.87089064
247 1  7.19844835 -10.48588853 -1.47434879
248 1  8.28299081 -6.22691004 6.25763936
249 1  9.66731136 -5.03055612 4.606671160000001
250 1  11.08614984 -3.84169236 2.9797715
251 1  12.45762182 -2.64510381 1.32526808
252 1  11.17250924 -4.6190101 0.61652294
253 1  9.94250379 -5.93582857 2.31574146
254 1  8.52969567 -7.13799286 3.96780608
255 1  9.83849341 -6.57135802 -0.07776871
256 1  8.61587344 -7.9136736 1.60953646
257 1  8.54033611 -8.54325848 -0.78466227
258 1  6.85681231 -7.41085198 7.87456235
259 1  12.01814294 2.11092532 2.63432136
260 1  10.62929707 3.36080902 4.23440609
261 1  9.29066934 4.63212437 5.86805655
262 1  8.00880624 5.9186555 7.52728413
263 1  7.14962951 10.23075277 -0.21435582
264 1  6.99123153 9.42846679 2.10569153
265 1  6.86650824 8.67520383 4.44962465
266 1  6.7760679 7.97464785 6.80598087
267 1  8.50902729 8.939711019999999 -1.87335425
268 1  9.66446715 6.88965135 -1.15670456
269 1  10.8783708 4.86507263 -0.44642202
270 1  12.14480257 2.87587573 0.25402028
271 1  11.03197086 4.28870318 1.96527632
272 1  9.85703267 6.351439330000001 1.25794253
273 1  8.59303492 8.35642279 0.53819911
274 1  9.73121291 5.59155939 3.6224647
275 1  8.50664654 7.63392208 2.90594315
276 1  8.34244331 6.84299066 5.24755527
277 1  7.61668832 9.3725609 0.8255676
278 1  7.48408765 8.6007838 3.16224904
279 1  7.3673258 7.86654813 5.51183758
280 1  7.22993389 7.08552491 7.84019946
281 1  8.96842937 8.08879084 -0.82408648
282 1  10.16351202 6.05609074 -0.10770059
283 1  11.39540991 4.04101176 0.595995
284 1  12.57736263 2.00698808 1.31424103
285 1  11.26946377 3.2803701399999996 2.96288908
286 1  10.23498142 5.42739797 2.2888062
287 1  9.01176927 7.46750224 1.57307675
288 1  9.9138619 4.54834391 4.58396479
289 1  8.88608851 6.70846243 3.93498449
290 1  8.59312029 5.82213596 6.22907826
291 1  7.72816975 10.09459111 -1.52313184
292 1  11.88600566 -1.5497891199999998 3.48603695
293 1  10.43489428 -2.71878721 5.09199135
294 1  9.03283775 -3.91180219 6.73148369
295 1  7.68669086 -5.12299916 8.39649492
296 1  6.51727125 3.54898339 10.03799776
297 1  6.42303159 1.09134289 9.98803901
298 1  6.35960235 -1.37298824 9.99388075
299 1  6.32729376 -3.83195784 10.05549376
300 1  7.94108228 4.76050845 8.37306695
301 1  9.22293394 3.47378957 6.71397645
302 1  10.56156214 2.20247413 5.08032627
303 1  11.95041894 0.95277825 3.4801041500000003
304 1  10.7657131 -0.26455696 5.29047393
305 1  9.46369489 1.01674037 6.9634077
306 1  8.07618515 2.28973036 8.57275399
307 1  9.39970856 -1.46923728 6.96930066
308 1  8.04932231 -0.18675384 8.61730183
309 1  7.94874531 -2.66152487 8.58449025
310 1  7.04219829 2.30656934 9.57223215
311 1  6.97197641 -0.15679499 9.55781735
312 1  6.91538317 -2.62041408 9.58391149
313 1  6.84088217 -5.07885157 9.55787375
314 1  8.45798934 3.51127061 7.916678849999999
315 1  9.77836218 2.23116838 6.27617414
316 1  11.13433299 0.96950504 4.65048986
317 1  12.44169262 -0.31310396 3.00857957
318 1  11.07028271 -1.51896631 4.65638879
319 1  9.90359243 -0.23967182999999997 6.42740776
320 1  8.55469955 1.04139297 8.07358665
321 1  9.65140134 -2.70148755 6.28786693
322 1  8.49078386 -1.4418355 8.07947291
323 1  8.26712363 -3.90418376 7.93425626
324 1  7.09426372 4.76543348 9.53453855
325 1  2.69404994 -11.21403606 -4.77689879
326 1  0.67102007 -10.35283377 -5.88010065
327 1  -1.3565476999999997 -9.54132694 -7.0235207
328 1  -3.37873783 -8.78348567 -8.20156706
329 1  -5.93798507 -10.98044324 0.03790982
330 1  -5.77939124 -10.17827875 -2.28216598
331 1  -5.6546672 -9.42501599 -4.62609901
332 1  -5.56442406 -8.72433869 -6.98242681
333 1  -3.8789579 -11.804540679999999 1.19907128
334 1  -1.73034378 -11.79885298 0.00124061
335 1  0.42194777 -11.85709659 -1.19927254
336 1  2.56739093 -11.97898608 -2.3965974499999994
337 1  0.49483886 -11.42086777 -3.6439555300000004
338 1  -1.67515669 -11.41393703 -2.44948756
339 1  -3.82947698 -11.30384773 -1.23192249
340 1  -1.54933722 -10.65405767 -4.81400979
341 1  -3.72053417 -10.59530273 -3.6029515300000003
342 1  -3.57888627 -9.79041594 -5.94127869
343 1  -5.19908869 -10.86843232 -1.17764112
344 1  -5.05988589 -10.10074004 -3.5152836
345 1  -4.94972645 -9.36241969 -5.86391096
346 1  -4.80268259 -8.58736917 -8.19367882
347 1  -3.15165872 -11.68788748 -0.02301975
348 1  -1.00146388 -11.72506673 -1.22659022
349 1  1.15145837 -11.80433469 -2.42322882
350 1  3.2968609399999997 -11.829100800000003 -3.62604851
351 1  1.27740397 -11.04369288 -4.79012309
352 1  -0.91416555 -11.19461121 -3.64621887
353 1  -3.08296173 -11.13592136 -2.43649961
354 1  -0.75181483 -10.21732065 -5.91825617
355 1  -2.95728142 -10.37688215 -4.79840746
356 1  -2.77635107 -9.42123321 -7.07618445
357 1  -5.30091749 -11.59643524 1.16965267
358 1  3.26641499 -11.99400642 -1.14265174
359 1  1.12108478 -11.87211959 0.05487656
360 1  -1.03120685 -11.81387582 1.25539008
361 1  -3.17993366 -11.81956061 2.45301714
362 1  2.92341772 -8.90671818 8.24350833
363 1  0.86477525 -9.5650993 7.0688184
364 1  -1.20199411 -10.27663286 5.92900836
365 1  -3.26678257 -11.0378394 4.82965239
366 1  5.109104259999999 -8.96586562 7.0243685
367 1  5.16289627 -9.68141365 4.67139799
368 1  5.2484182 -10.451191040000001 2.33107454
369 1  5.36525233 -11.27143388 0.01484418
370 1  3.24305417 -11.47992099 1.28593695
371 1  3.1709952 -10.75548618 3.65356948
372 1  3.07122567 -9.93330859 5.98804011
373 1  1.08607102 -11.47326907 2.50374736
374 1  0.99979749 -10.69673003 4.86462783
375 1  -1.08126197 -11.36289836 3.69796978
376 1  2.28888342 -9.51795673 7.1210861
377 1  0.22593271 -10.21431684 5.96669537
378 1  -1.8432477299999999 -10.94053898 4.8422423
379 1  -3.90057729 -11.626524459999999 3.68165532
380 1  4.46225956 -9.576771640000002 5.90881339
381 1  4.53400533 -10.33090028 3.56372338
382 1  4.63324523 -11.11580257 1.22976079
383 1  4.69720141 -11.85919121 -1.11404559
384 1  2.54622927 -11.83430495 0.0787843
385 1  2.50631282 -11.26810939 2.48961395
386 1  2.42013455 -10.49242866 4.84788399
387 1  0.39711526 -11.75511908 1.28225534
388 1  0.33751618 -11.20941818 3.69933315
389 1  -1.75688796 -11.71785717 2.47899357
390 1  4.35556507 -8.78415418 8.23486483
391 1  -6.517262719999999 -3.54897872 -10.03798792
392 1  -6.42302202 -1.09133869 -9.988028160000002
393 1  -6.35959295 1.37299228 -9.99387008
394 1  -6.32728412 3.83196166 -10.05548364
395 1  -11.88599752 1.54979284 -3.48602721
396 1  -10.43488646 2.71879094 -5.09198182
397 1  -9.032829019999998 3.91180651 -6.73147403
398 1  -7.6866824099999995 5.12300324 -8.39648547
399 1  -11.95041065 -0.95277379 -3.48009477
400 1  -10.56155401 -2.20246932 -5.08031619
401 1  -9.22292598 -3.47378533 -6.71396692
402 1  -7.94107355 -4.76050385 -8.37305707
403 1  -8.07617675 -2.28972605 -8.57274354
404 1  -9.4636856 -1.01673561 -6.96339716
405 1  -10.76570496 0.26456131 -5.29046438
406 1  -8.04931288 0.18675834 -8.61729101
407 1  -9.39969973 1.4692414599999999 -6.96929019
408 1  -7.94873631 2.66152893 -8.58448039
409 1  -11.07027495 1.51897018 -4.65637917
410 1  -9.65139262 2.70149165 -6.28785667
411 1  -8.26711506 3.90418794 -7.93424686
412 1  -6.84087308 5.07885538 -9.5578642
413 1  -11.13432505 -0.96950036 -4.65048009
414 1  -9.77835357 -2.23116392 -6.27616406
415 1  -8.45798078 -3.51126641 -7.91666878
416 1  -7.09425537 -4.765429 -9.53452894
417 1  -7.04218965 -2.30656508 -9.57222199
418 1  -8.55469035 -1.04138865 -8.07357583
419 1  -9.90358359 0.23967637 -6.42739724
420 1  -6.97196647 0.15679918000000004 -9.55780631
421 1  -8.49077491 1.44183978 -8.07946239
422 1  -6.91537365 2.6204182 -9.58390131
423 1  -12.44168391 0.31310808999999995 -3.00856997
424 1  -8.00879836 -5.91865168 -7.52727527
425 1  -9.29066214 -4.6321205 -5.8680473
426 1  -10.62928961 -3.36080454 -4.23439638
427 1  -12.01813541 -2.11092123 -2.63431217
428 1  -8.50901941 -8.93970714 1.87336308
429 1  -9.66446027 -6.88964793 1.15671358
430 1  -10.87836432 -4.86506911 0.44643052
431 1  -12.14479524 -2.8758717200000006 -0.25401123
432 1  -7.14962129 -10.23074841 0.21436481
433 1  -6.9912236 -9.42846213 -2.10568262
434 1  -6.86649951 -8.67519935 -4.44961576
435 1  -6.77605968 -7.97464368 -6.80597204
436 1  -8.34243553 -6.84298664 -5.24754602
437 1  -8.50663981 -7.63391835 -2.90593433
438 1  -8.59302712 -8.35641827 -0.53819047
439 1  -9.73120591 -5.59155542 -3.62245543
440 1  -9.85702613 -6.35143505 -1.2579341
441 1  -11.0319641 -4.28869911 -1.9652673
442 1  -8.96842176 -8.08878691 0.82409526
443 1  -10.16350571 -6.05608689 0.10770912
444 1  -11.39540333 -4.04100787 -0.59598635
445 1  -12.57735526 -2.00698369 -1.31423163
446 1  -7.61668024 -9.37255643 -0.82555861
447 1  -7.48407986 -8.60077959 -3.16224028
448 1  -7.36731731 -7.86654394 -5.51182891
449 1  -7.22992625 -7.0855213 -7.84019097
450 1  -8.59311274 -5.82213231 -6.22906908
451 1  -8.88608132 -6.70845887 -3.9349754
452 1  -9.0117624 -7.46749797 -1.57306816
453 1  -9.91385467 -4.54833995 -4.5839556
454 1  -10.23497462 -5.42739355 -2.2887971399999993
455 1  -11.26945664 -3.28036594 -2.96287971
456 1  -7.728161990000001 -10.09458751 1.5231403699999997
457 1  -2.92340894 8.906722060000002 -8.24349889
458 1  -0.8647667 9.56510361 -7.06880921
459 1  1.20200267 10.27663779 -5.92899967
460 1  3.26679178 11.03784423 -4.82964351
461 1  -3.26640657 11.99401193 1.14266025
462 1  -1.12107675 11.87212569 -0.05486856
463 1  1.0312151 11.81388217 -1.25538158
464 1  3.17994264 11.8195658 -2.45300846
465 1  -5.36524375 11.27143765 -0.01483497
466 1  -5.24840874 10.45119478 -2.33106523
467 1  -5.16288642 9.68141706 -4.67138869
468 1  -5.1090953 8.96587021 -7.02435933
469 1  -3.07121655 9.93331304 -5.98803124
470 1  -3.17098587 10.75549078 -3.65356074
471 1  -3.2430457 11.47992635 -1.2859285
472 1  -0.99978899 10.69673484 -4.86461891
473 1  -1.08606287 11.47327441 -2.50373888
474 1  1.08127081 11.36290391 -3.69796101
475 1  -2.54622113 11.83431043 -0.07877617
476 1  -0.39710737 11.75512517 -1.28224728
477 1  1.75689695 11.71786295 -2.47898492
478 1  3.90058633 11.62652907 -3.68164664
479 1  -4.63323648 11.11580687 -1.22975147
480 1  -4.53399555 10.33090394 -3.56371412
481 1  -4.4622499 9.57677598 -5.90880429
482 1  -4.35555608 8.78415789 -8.23485559
483 1  -2.28887436 9.517960630000001 -7.12107687
484 1  -2.42012584 10.4924335 -4.84787523
485 1  -2.50630443 11.268114529999998 -2.48960533
486 1  -0.22592403 10.21432164 -5.96668627
487 1  -0.33750758 11.20942332 -3.69932447
488 1  1.84325668 10.9405442 -4.84223357
489 1  -4.69719281 11.85919553 1.1140543
490 1  -7.69463478 6.28709524 -7.55620723
491 1  -9.0407828 5.07608702 -5.89105967
492 1  -10.44283999 3.8830718 -4.25156804
493 1  -11.8939499 2.71388442 -2.64574921
494 1  -8.03763165 9.37438423 1.82995178
495 1  -9.29709201 7.38310736 1.12288151
496 1  -10.61362708 5.4203146 0.42205035
497 1  -11.98079871 3.49560576 -0.26911398
498 1  -6.6138205 10.58590996 0.16502177
499 1  -6.49718828 9.76555612 -2.15117952
500 1  -6.41166603 8.99577845 -4.4915027
501 1  -6.35767244 8.28034271 -6.84450245
502 1  -7.98000052 7.238159780000001 -5.2809242
503 1  -8.10301242 8.0475755 -2.94310546
504 1  -8.15182856 8.78477178 -0.57882133
505 1  -9.43111209 6.06754209 -3.65009238
506 1  -9.51738501 6.84408056 -1.28921239
507 1  -10.79696967 4.84119137 -1.98690852
508 1  -8.54032763 8.54326262 0.78467095
509 1  -9.83848598 6.57136244 0.07777717
510 1  -11.172501869999998 4.61901445 -0.61651375
511 1  -12.45761466 2.64510789 -1.32525899
512 1  -7.12453627 9.74796503 -0.87088142
513 1  -7.03209944 8.959327569999997 -3.20386391
514 1  -6.95355042 8.20893468 -5.54993375
515 1  -6.85680366 7.41085602 -7.87455288
516 1  -8.28298247 6.22691416 -6.25762986
517 1  -8.52968686 7.13799708 -3.96779699
518 1  -8.61586457 7.91367715 -1.60952725
519 1  -9.66730357 5.03056072 -4.60666169
520 1  -9.9424959 5.9358326 -2.31573221
521 1  -11.08614224 3.84169637 -2.97976238
522 1  -7.198439700000001 10.48589314 1.47435708
523 1  5.93799401 10.98044853 -0.03790115
524 1  5.77939985 10.17828425 2.28217469
525 1  5.65467621 9.42502093 4.62610793
526 1  5.5644325 8.72434358 6.98243556
527 1  -2.69404146 11.214040530000002 4.7769069
528 1  -0.67101219 10.35283785 5.88010853
529 1  1.35655547 9.54133154 7.02352868
530 1  3.37874571 8.78349021 8.20157533
531 1  -2.5673823 11.978992189999998 2.39660595
532 1  -0.42193911 11.857103 1.19928067
533 1  1.73035283 11.79885987 -0.00123267
534 1  3.87896671 11.80454591 -1.1990631
535 1  3.82948571 11.303853429999998 1.23193092
536 1  1.67516501 11.41394364 2.44949589
537 1  -0.49483031 11.42087352 3.64396363
538 1  3.72054289 10.59530936 3.60296007
539 1  1.54934576 10.654063450000002 4.81401801
540 1  3.57889457 9.79042137 5.94128706
541 1  -1.27739551 11.043697820000002 4.79013106
542 1  0.75182262 10.2173254 5.91826415
543 1  2.7763591700000005 9.42123818 7.07619253
544 1  4.80269091 8.58737459 8.19368777
545 1  -1.15144976 11.80434065 2.42323712
546 1  1.00147265 11.72507364 1.22659833
547 1  3.1516678900000006 11.687893410000001 0.02302805
548 1  5.30092633 11.59644047 -1.16964372
549 1  5.1990977 10.86843784 1.17764948
550 1  3.08297026 11.13592789 2.43650798
551 1  0.91417378 11.19461747 3.64622704
552 1  5.05989481 10.100745689999998 3.5152924
553 1  2.95729016 10.37688818 4.798415809999999
554 1  4.94973497 9.36242482 5.86391987
555 1  -3.29685238 11.82910584 3.62605694
556 1  -8.57664694 0.96022644 9.019448
557 1  -9.71824898 0.98456236 6.8405664
558 1  -10.91849864 1.01035143 4.68749465
559 1  -12.17152673 1.03746961 2.57076242
560 1  -8.11027111 8.93568489 3.19505502
561 1  -9.369743 6.94433708 2.48820634
562 1  -10.68627753 4.98154411 1.7873748400000002
563 1  -12.053437559999999 3.0569068500000003 1.09598906
564 1  -6.89139893 8.90949561 5.38153416
565 1  -6.97284838 6.89283602 6.7878852
566 1  -7.08913308 4.90425342 8.2401258
567 1  -7.2396857400000005 2.95347371 9.73115404
568 1  -8.67104573 3.06462828 7.70588297
569 1  -8.59352563 5.08515117 6.27509286
570 1  -8.43740957 7.06002481 4.78808752
571 1  -9.921624 3.10511711 5.56810475
572 1  -9.80431756 5.11116684 4.10310814
573 1  -11.08254886 3.11644417 3.37999913
574 1  -8.68526553 7.66792121 3.50847855
575 1  -9.9838191 5.69363034 2.80902273
576 1  -11.3174386 3.74367246 2.10729329
577 1  -12.60313046 1.76627157 1.40942303
578 1  -7.47325879 7.641879200000001 5.68264226
579 1  -7.5813752 5.64201062 7.11865709
580 1  -7.70574961 3.66606892 8.58613435
581 1  -7.8084814 1.66324834 10.01031811
582 1  -9.03518087 1.68404867 7.87843684
583 1  -9.08848014 3.76319381 6.5336009
584 1  -8.97130343 5.76702575 5.07022431
585 1  -10.21657794 1.71324317 5.71585684
586 1  -10.29793364 3.78918121 4.36401823
587 1  -11.43486273 1.73561045 3.57375963
588 1  -7.34395629 9.60705621 4.20903955
589 1  -8.61358797 -0.4749962 9.02285005
590 1  -9.75519615 -0.45089339 6.84396864
591 1  -10.95544607 -0.42510374 4.69089698
592 1  -12.20846845 -0.39775298 2.57416462
593 1  -8.55882686 -8.49138962 3.2363638
594 1  -9.71427647 -6.4412582 2.51993571
595 1  -10.92818033 -4.41667919 1.80965262
596 1  -12.1946032 -2.42755439 1.10898953
597 1  -7.33995417 -8.51758014 5.422842509999999
598 1  -7.31737978 -6.49276018 6.81961338
599 1  -7.33103386 -4.49397131 8.26240256
600 1  -7.38084939 -2.53098811 9.74415352
601 1  -8.81628028 -2.5779546500000006 7.71925785
602 1  -8.84297989 -4.60654568 6.2980654
603 1  -8.7888476 -6.59385808 4.82045237
604 1  -10.06754696 -2.56418308 5.58154283
605 1  -10.05377312 -4.58052893 4.12608122
606 1  -11.22778463 -2.52613881 3.39337459
607 1  -9.06780406 -7.19425449 3.54370772
608 1  -10.26315944 -5.15911144 2.83474815
609 1  -11.49478563 -3.1464752600000003 2.12362564
610 1  -12.67713458 -1.10887951 1.41623819
611 1  -7.85579635 -7.22029701 5.71787099
612 1  -7.86071294 -5.21073305 7.1443813
613 1  -7.88309473 -3.22408022 8.60246621
614 1  -7.88248468 -1.21190253 10.01713353
615 1  -9.1088898 -1.17966825 7.8852249
616 1  -9.26924219 -3.259667 6.55024774
617 1  -9.25548335 -5.2737835 5.09639515
618 1  -10.29048834 -1.15829404 5.72266326
619 1  -10.47869619 -3.23367921 4.38066494
620 1  -11.508573 -1.12810686 3.5805478
621 1  -7.82794057 -9.19648263 4.25361077
622 1  -6.19999679 -3.00360827 10.41007976
623 1  -6.14999028 -4.96666864 8.92843689
624 1  -6.1363355 -6.96545718 7.48564734
625 1  -6.159101110000001 -8.99019977 6.08876856
626 1  2.14380263 -8.16630557 9.19494403
627 1  0.08503377999999999 -8.82456635 8.02040801
628 1  -1.98173553 -9.53610025 6.88059831
629 1  -4.04639799 -10.29742682 5.78108837
630 1  2.12993677 -6.13650371 10.66011944
631 1  0.05776662 -4.83299178 10.90165458
632 1  -2.0226573 -3.54573736 11.20463412
633 1  -4.10115942 -2.28103432 11.56757471
634 1  -4.17375474 -4.43606278 10.33734927
635 1  -2.09354881 -5.75566698 10.0783745
636 1  0.00616636 -7.02237383 9.72861289
637 1  -4.17847245 -6.4734511800000005 8.92855243
638 1  -2.07977459 -7.772012809999999 8.62291209
639 1  -4.14632134 -8.45196506 7.43854297
640 1  0.73330808 -8.04060232 9.01949704
641 1  -1.33389036 -8.7329285 7.87029013
642 1  -3.39882302 -9.46318521 6.740653680000001
643 1  -5.46236392 -10.14327219 5.587646300000001
644 1  0.71952047 -6.02223382 10.47642033
645 1  -1.36122091 -4.73211177 10.75820767
646 1  -3.43991023 -3.4486011 11.08217231
647 1  -5.51690792 -2.15869259 11.35116929
648 1  -5.52692594 -4.1671052 9.93119682
649 1  -3.49107089 -5.57230115 9.80877084
650 1  -1.39469347 -6.8694274 9.50346866
651 1  -5.49811 -6.15633314 8.47674024
652 1  -3.47731188 -7.58641746 8.35491793
653 1  -5.49962663 -8.16332133 7.04660094
654 1  2.79377869 -7.300901179999999 10.14085564
655 1  -3.33441115 -1.13790672 11.97573791
656 1  -1.25578445 -2.40242438 11.61286287
657 1  0.8246391600000001 -3.68967902 11.30988378
658 1  2.89668505 -4.99337645 11.06828298
659 1  5.263779620000001 3.58290399 10.73717483
660 1  5.16933691 1.12526914 10.68732958
661 1  5.10590773 -1.3390616600000003 10.69317078
662 1  5.07380211 -3.79803707 10.75467059
663 1  3.15107629 4.89013146 11.04485415
664 1  1.01473688 3.69591312 11.29237523
665 1  -1.12911584 2.51883769 11.60119564
666 1  -3.2699977 1.36466039 11.96980519
667 1  -1.15928136 0.05814733 11.94204257
668 1  0.99918516 1.24579955 11.68477357
669 1  3.14808018 2.423091 11.321570560000001
670 1  0.93519818 -1.24017766 11.69066697
671 1  3.09788299 -0.05276241 11.37913444
672 1  3.02063996 -2.52816487 11.3333082
673 1  4.54109194 2.37425223 10.96730855
674 1  4.46404014 -0.08892721000000002 10.95670336
675 1  4.41427687 -2.55273125 10.97898751
676 1  4.3297892 -5.01089852 10.95852055
677 1  2.44028848 3.67411671 11.27325432
678 1  0.29982078 2.48766871 11.5631502
679 1  -1.84595716 1.32076701 11.89068462
680 1  -3.98089738 0.13131065 12.16883317
681 1  -1.91000783 -1.16770465 11.89658467
682 1  0.26079725 0.02127343 11.8060024
683 1  2.4210910700000006 1.20737582 11.49481373
684 1  0.17285892 -2.44498723 11.57484375
685 1  2.3571748 -1.27585306 11.50070072
686 1  2.24942217 -3.74133778 11.29083353
687 1  4.58317119 4.83338639 10.9351852
688 1  -3.97697364 2.54377223 11.55613756
689 1  -1.83620716 3.69814042 11.18746116
690 1  0.30764617 4.87521542 10.87864022
691 1  2.44410042 6.06924252 10.63118574
692 1  -3.51059787 10.51923057 5.73174482
693 1  -1.48770097 9.65791491 6.83510082
694 1  0.539867 8.84640818 7.97852084
695 1  2.56218958 8.08867936 9.15641251
696 1  -5.68771507 9.32389205 6.04535815
697 1  -5.76896921 7.30729934 7.45181592
698 1  -5.88525418 5.31871695 8.9040569
699 1  -6.03600142 3.3678704 10.39497736
700 1  -3.93875984 4.69382878 10.31570688
701 1  -3.83883293 6.72206611 8.897274350000002