Geometry = GenFormat {
  <<< "C720.gen"
}

DisplayModes = {
  PlotModes = 1:-1 # Take the top 10 modes
  Animate = No      # make xyz files showing the atoms moving
}

# You need to specify the SK-files, as the mass of the elements is needed
SlaterKosterFiles {
  C-C = "Slater-Koster/3ob-3-1/C-C.skf"
}

# Include the Hessian, which was calculated by DFTB+
Hessian = {
  <<< "hessian.out"
}

# This file uses the 3rd input format of the modes code
InputVersion = 3