Geometry = GenFormat {
60 C
C H
1 2  -0.1651451615 1.317645174e-11 -1.116769291e-11
2 1  0.8979437617 -5.132193107e-12 -3.507280337e-11
3 1  2.117953208 7.262356034e-12 2.2603751119999998e-11
4 1  3.494287903 -4.881195036e-12 3.577053887e-11
5 1  4.728362171999999 4.035809541e-12 -4.169816055e-12
6 1  6.093015415 -2.3297755800000003e-11 2.211535643e-12
7 1  7.332422851 -2.693038079e-12 -9.24332836e-12
8 1  8.692745262 -2.841124814e-11 1.99111772e-11
9 1  9.934458867 1.933542468e-11 -2.658218125e-11
10 1  11.29281971 1.751081866e-11 4.912109586e-12
11 1  12.53564111 -5.270153696e-12 -3.90781875e-12
12 1  13.89304644 -4.846388962e-13 3.178524593e-11
13 1  15.13640725 -4.577725985e-12 -2.067328567e-11
14 1  16.49336851 1.559866206e-12 9.949070396999998e-12
15 1  17.73695271 3.385074714e-11 -1.813411496e-11
16 1  19.09378382 2.176494728e-11 6.644581348e-12
17 1  20.33736802 -9.344077439e-12 -2.980850069e-11
18 1  21.69432928 -2.444562244e-11 1.245546158e-11
19 1  22.93769009 -9.119375238e-12 -2.7583041070000006e-12
20 1  24.29509542 1.176208609e-11 3.10561849e-11
21 1  25.53791682 -3.503775004e-11 -1.313947695e-11
22 1  26.89627766 -1.082030859e-11 1.114458954e-11
23 1  28.137991270000004 9.453249596e-12 -2.497387456e-11
24 1  29.498313680000003 1.568188487e-11 -7.033849774e-12
25 1  30.73772112 9.260752455e-12 -1.532110847e-11
26 1  32.10237436 1.847784973e-12 3.02950111e-13
27 1  33.33644863 5.920478292e-12 2.525611681e-11
28 1  34.71278332 3.0265696820000005e-12 2.123651189e-11
29 1  35.93279277 3.023105985e-12 -1.936990961e-11
30 2  36.99588169 -1.495725075e-11 6.116240558e-12
31 2  -0.1651451615 1.317645174e-11 4.999999999988832
32 1  0.8979437617 -5.132193107e-12 4.999999999964928
33 1  2.117953208 7.262356034e-12 5.000000000022604
34 1  3.494287903 -4.881195036e-12 5.0000000000357705
35 1  4.728362171999999 4.035809541e-12 4.99999999999583
36 1  6.093015415 -2.3297755800000003e-11 5.000000000002212
37 1  7.332422851 -2.693038079e-12 4.999999999990757
38 1  8.692745262 -2.841124814e-11 5.000000000019911
39 1  9.934458867 1.933542468e-11 4.999999999973418
40 1  11.29281971 1.751081866e-11 5.0000000000049125
41 1  12.53564111 -5.270153696e-12 4.999999999996092
42 1  13.89304644 -4.846388962e-13 5.000000000031785
43 1  15.13640725 -4.577725985e-12 4.999999999979327
44 1  16.49336851 1.559866206e-12 5.000000000009949
45 1  17.73695271 3.385074714e-11 4.999999999981866
46 1  19.09378382 2.176494728e-11 5.0000000000066445
47 1  20.33736802 -9.344077439e-12 4.999999999970192
48 1  21.69432928 -2.444562244e-11 5.000000000012456
49 1  22.93769009 -9.119375238e-12 4.999999999997241
50 1  24.29509542 1.176208609e-11 5.000000000031056
51 1  25.53791682 -3.503775004e-11 4.99999999998686
52 1  26.89627766 -1.082030859e-11 5.000000000011144
53 1  28.137991270000004 9.453249596e-12 4.999999999975026
54 1  29.498313680000003 1.568188487e-11 4.9999999999929665
55 1  30.73772112 9.260752455e-12 4.999999999984679
56 1  32.10237436 1.847784973e-12 5.000000000000303
57 1  33.33644863 5.920478292e-12 5.000000000025256
58 1  34.71278332 3.0265696820000005e-12 5.000000000021236
59 1  35.93279277 3.023105985e-12 4.99999999998063
60 2  36.99588169 -1.495725075e-11 5.000000000006116
}
Driver = VelocityVerlet {
  TimeStep [fs] = 1.0
  Thermostat = NoseHoover {
    Temperature [Kelvin] = 300
    CouplingStrength [cm^-1] = 3200
    ChainLength = 3
    Order = 3
    IntegratorSteps = 1
    AdaptFillingTemp = No
  }
  Steps = 5
  MovedAtoms = {
!(1 30 31 60 )
  }
  MDRestartFrequency = 1
  KeepStationary = No
  Velocities [A/ps] = {}
  OutputPrefix = "geo_end"
  Plumed = No
  Masses = {}
}
Hamiltonian = DFTB {
  Scc = Yes
  ReadInitialCharges = No
  SlaterKosterFiles = {
    H-C = "../../Slater-Koster/3ob-3-1/H-C.skf"
    C-H = "../../Slater-Koster/3ob-3-1/C-H.skf"
    H-H = "../../Slater-Koster/3ob-3-1/H-H.skf"
    C-C = "../../Slater-Koster/3ob-3-1/C-C.skf"
  }
  MaxAngularMomentum = {
    H = "p"
    C = "p"
  }
  ThirdOrderFull = Yes
  MaxSCCIterations = 10000
  HubbardDerivs = {
    H = -0.1857
    C = -0.1492
  }
  Filling = Fermi {
    Temperature [kelvin] = 200.0000000000000000
  }
  SCCTolerance = 1.0000000000000001E-007
  Dispersion = TS {
    RangeSeparation = 0.94
    Damping = 20.000000000000000
    ReferenceSet = "ts"
    LogLevel = 0
  }
  PolynomialRepulsive = {}
  ShellResolvedSCC = No
  OldSKInterpolation = No
  RangeSeparated = None {}
  InitialCharges = {}
  ConvergentSCCOnly = Yes
  HCorrection = None {}
  SpinPolarisation = {}
  ElectricField = {}
  Solver = RelativelyRobust {}
  Charge = 0.0000000000000000
  OnSiteCorrection = {}
  Solvation = {}
  Electrostatics = GammaFunctional {}
  ThirdOrder = No
  Differentiation = FiniteDiff {
    Delta = 1.2207031250000000E-004
  }
  ForceEvaluation = "Traditional"
  Mixer = Broyden {
    MixingParameter = 0.20000000000000001
    InverseJacobiWeight = 1.0000000000000000E-002
    MinimalWeight = 1.0000000000000000
    MaximalWeight = 100000.00000000000
    WeightFactor = 1.0000000000000000E-002
  }
}
Options = {
  WriteResultsTag = No
  WriteDetailedOut = No
  RandomSeed = 10
  WriteAutotestTag = No
  WriteDetailedXML = No
  WriteHS = No
  WriteRealHS = No
  MinimiseMemoryUsage = No
  ShowFoldedCoords = No
  TimingVerbosity = 1
  WriteChargesAsText = No
}
Analysis = {
  CalculateForces = Yes
  ProjectStates = {}
  WriteEigenvectors = No
  WriteBandOut = Yes
  MullikenAnalysis = Yes
  WriteNetCharges = No
  AtomResolvedEnergies = No
}
ParserOptions = {
  ParserVersion = 12
  WriteHSDInput = Yes
  StopAfterParsing = No
  IgnoreUnprocessedNodes = No
}
Reks = None {}
ExcitedState = {}
