Geometry = GenFormat {
60 C
C H
1 1  0.0003664817856 8.746323525 3.207541283e-09
2 1  1.219401998 8.685523123 1.44293658e-08
3 1  2.595097427 8.618787476 2.635897604e-08
4 1  3.828326924 8.561003768000003 4.451717582e-08
5 1  5.192611634 8.50076752 4.901840347e-08
6 1  6.431444086 8.449240938 4.280351944e-08
7 1  7.791759682 8.397844839 1.260039351e-08
8 1  9.033228663 8.355147675 -4.706279444e-08
9 1  10.3919549 8.314643567 -1.0861361779999998e-07
10 1  11.634850540000002 8.282695501 -1.857145963e-07
11 1  12.99294183 8.254847241 -2.18697043e-07
12 1  14.23663055 8.235369115 -2.168192624e-07
13 1  15.5944894 8.221323878 -1.630204549e-07
14 1  16.83853403 8.214883602 -5.087366763e-08
15 1  18.1963334 8.21497298 5.295017683e-08
16 1  19.44037619 8.221616385 1.639900553e-07
17 1  20.798231150000003 8.235768929 2.166379911e-07
18 1  22.04191745 8.2552747 2.17460883e-07
19 1  23.40000613 8.283045392 1.83981936e-07
20 1  24.64290399 8.31480185 1.0704472119999999e-07
21 1  26.0016316 8.355128352 4.580260202e-08
22 1  27.24310472 8.397657893 -1.295223909e-08
23 1  28.60342168 8.448949325 -4.277741391e-08
24 1  29.84225528 8.500439014 -4.888721085e-08
25 1  31.20653837 8.560700008 -4.459707233e-08
26 1  32.4397623 8.61859371 -2.76033601e-08
27 1  33.81545343 8.685426724 -1.582103378e-08
28 1  35.03448349 8.746322869 -3.986515849e-09
29 1  0.0003504028067 0.05347853204 -2.8173301130000003e-08
30 1  1.219387768 0.1140761064 -5.13979897e-08
31 1  2.595083932 0.1805249285 -7.300261539e-08
32 1  3.828321212 0.2379866189 -8.212424455e-08
33 1  5.192611844 0.2978100182 -8.973403552e-08
34 1  6.43145614 0.3488961164 -8.948209331e-08
35 1  7.791777277 0.3997961068 -8.51079948e-08
36 1  9.033257329 0.4419898509 -7.327399974e-08
37 1  10.39198506 0.4819572876 -5.912069734e-08
38 1  11.63488673 0.5133839341 -4.065567277e-08
39 1  12.99296983 0.5408767909 -2.6105401719999998e-08
40 1  14.23665297 0.5602238792 -1.518223555e-08
41 1  15.59449681 0.574213692 -6.932065956e-09
42 1  16.83853374 0.5807310905 -3.020826713e-09
43 1  18.19631883 0.5807367969 2.288492166e-09
44 1  19.44035571 0.5742260165 6.396468027000001e-09
45 1  20.79820019 0.560261837 1.483658271e-08
46 1  22.04188385 0.5409567056 2.580334722e-08
47 1  23.39996803 0.5135176113 4.023660749e-08
48 1  24.64287126 0.4821636262 5.838141387e-08
49 1  26.00160004 0.4422297622 7.223389379e-08
50 1  27.24307979 0.4000365766 8.390685896e-08
51 1  28.60340036 0.3490958836 8.829670380000001e-08
52 1  29.84224132 0.2979208458 8.889802182e-08
53 1  31.20653039 0.2380288345 8.170552534e-08
54 1  32.43976505 0.1804959448 7.291971837e-08
55 1  33.81546104 0.114033287 5.129829727e-08
56 1  35.03449867 0.05344025538 2.825597146e-08
57 2  -1.063088923 8.8 2.390511046e-11
58 2  36.09793793 8.8 4.118904393e-11
59 2  36.09793793 -9.825057643e-12 4.118904393e-11
60 2  -1.063088923 1.830864485e-11 2.390511046e-11
}
Driver = LBFGS {
  MovedAtoms = 1:-1
  MaxForceComponent = 1E-6
  MaxSteps = 2000
  Constraints = {
57 1.0 0.0 0.0
57 0.0 1.0 0.0
57 0.0 0.0 1.0
58 1.0 0.0 0.0
58 0.0 1.0 0.0
58 0.0 0.0 1.0
59 1.0 0.0 0.0
59 0.0 1.0 0.0
59 0.0 0.0 1.0
60 1.0 0.0 0.0
60 0.0 1.0 0.0
60 0.0 0.0 1.0
  }
  LineSearch = Yes
  oldLineSearch = Yes
  Memory = 20
  LatticeOpt = No
  MaxAtomStep = 0.20000000000000001
  StepSize = 100.00000000000000
  OutputPrefix = "geo_end"
  AppendGeometries = No
}
Hamiltonian = DFTB {
  Scc = Yes
  ReadInitialCharges = No
  SlaterKosterFiles = {
    H-C = "../../Slater-Koster/3ob-3-1/H-C.skf"
    C-H = "../../Slater-Koster/3ob-3-1/C-H.skf"
    H-H = "../../Slater-Koster/3ob-3-1/H-H.skf"
    C-C = "../../Slater-Koster/3ob-3-1/C-C.skf"
  }
  MaxAngularMomentum = {
    H = "p"
    C = "p"
  }
  ThirdOrderFull = Yes
  MaxSCCIterations = 10000
  HubbardDerivs = {
    H = -0.1857
    C = -0.1492
  }
  Filling = Fermi {
    Temperature [kelvin] = 200.0000000000000000
  }
  SCCTolerance = 1.0000000000000001E-007
  Dispersion = TS {
    RangeSeparation = 0.94
    Damping = 20.000000000000000
    ReferenceSet = "ts"
    LogLevel = 0
  }
  PolynomialRepulsive = {}
  ShellResolvedSCC = No
  OldSKInterpolation = No
  RangeSeparated = None {}
  InitialCharges = {}
  ConvergentSCCOnly = Yes
  HCorrection = None {}
  SpinPolarisation = {}
  ElectricField = {}
  Solver = RelativelyRobust {}
  Charge = 0.0000000000000000
  OnSiteCorrection = {}
  Solvation = {}
  Electrostatics = GammaFunctional {}
  ThirdOrder = No
  Differentiation = FiniteDiff {
    Delta = 1.2207031250000000E-004
  }
  ForceEvaluation = "Traditional"
  Mixer = Broyden {
    MixingParameter = 0.20000000000000001
    InverseJacobiWeight = 1.0000000000000000E-002
    MinimalWeight = 1.0000000000000000
    MaximalWeight = 100000.00000000000
    WeightFactor = 1.0000000000000000E-002
  }
}
Options = {
  WriteDetailedOut = Yes
  WriteAutotestTag = No
  WriteDetailedXML = No
  WriteResultsTag = No
  RandomSeed = 0
  WriteHS = No
  WriteRealHS = No
  MinimiseMemoryUsage = No
  ShowFoldedCoords = No
  TimingVerbosity = 1
  WriteChargesAsText = No
}
Analysis = {
  CalculateForces = Yes
  ProjectStates = {}
  WriteEigenvectors = No
  WriteBandOut = Yes
  MullikenAnalysis = Yes
  WriteNetCharges = No
  AtomResolvedEnergies = No
}
ParserOptions = {
  ParserVersion = 12
  WriteHSDInput = Yes
  StopAfterParsing = No
  IgnoreUnprocessedNodes = No
}
Reks = None {}
ExcitedState = {}
