Geometry = GenFormat {
60 C
C H
1 2  -0.16066367999893102 0.0 0.0
2 1  0.9072077568609557 -0.0002603839815053587 0.11890307553175532
3 1  2.1165070338823018 -7.27245857982197e-05 0.24852994190461694
4 1  3.493472946128522 6.0333183660920626e-05 0.38548342056629176
5 1  4.719980648674153 0.00036262506559181897 0.49426671409377376
6 1  6.086844312046523 0.0006083873130930817 0.5977440484815684
7 1  7.3208630923991285 0.0007538652057817974 0.674201153861519
8 1  8.685226203209245 0.0008831665220709256 0.7408633135365178
9 1  9.923199268207402 0.000819436491860555 0.7862075345934745
10 1  11.28652500172738 0.0008206281077995221 0.8232344393225414
11 1  12.526584331499398 0.0008337124762765782 0.8466249054485923
12 1  13.88943691499793 0.0008260461852767949 0.8643523168375586
13 1  15.130216740692989 0.0008441091118270285 0.8745629146517637
14 1  16.49276155154449 0.0007539838177694738 0.8813890232789507
15 1  17.734032376604283 0.0006432819724372515 0.8842679961868724
16 1  19.096713903660724 0.000529372174409621 0.8841427663424266
17 1  20.33796159660974 0.0006132670995742421 0.8810030357030023
18 1  21.70042304993375 0.0005903338120261966 0.8737137731062897
19 1  22.94123096866858 0.0005285832378712371 0.862803356256187
20 1  24.304046854197274 0.00045225745734238647 0.8445993947077215
21 1  25.544079718836944 0.0003100658703507577 0.82089372333073
22 1  26.907413458667865 0.00020363281342598245 0.7836672687626256
23 1  28.145404250834925 5.644393453850088e-05 0.7378572034575375
24 1  29.509681811134964 3.0446030981351798e-05 0.6712507829137451
25 1  30.743788579119528 0.00013448227127752538 0.5950048481037599
26 1  32.11066990240904 0.00015087150455787024 0.49199230231327873
27 1  33.33725396364672 0.00022386971615274737 0.38375512252620997
28 1  34.71412081334714 0.00023733532948509126 0.2474567224043167
29 1  35.923530985136125 0.00020072087596246838 0.11861196553185722
30 2  36.99140021037397 0.0 0.0
31 2  -0.16066367999893102 0.0 5.29177249
32 1  0.9072077568609557 -0.0002603839815053587 5.172869414468245
33 1  2.1165070338823018 -7.27245857982197e-05 5.0432425480953835
34 1  3.493472946128522 6.0333183660920626e-05 4.906289069433708
35 1  4.719980648674153 0.00036262506559181897 4.797505775906226
36 1  6.086844312046523 0.0006083873130930817 4.694028441518431
37 1  7.3208630923991285 0.0007538652057817974 4.6175713361384805
38 1  8.685226203209245 0.0008831665220709256 4.550909176463482
39 1  9.923199268207402 0.000819436491860555 4.505564955406525
40 1  11.28652500172738 0.0008206281077995221 4.468538050677459
41 1  12.526584331499398 0.0008337124762765782 4.445147584551408
42 1  13.88943691499793 0.0008260461852767949 4.427420173162441
43 1  15.130216740692989 0.0008441091118270285 4.417209575348235
44 1  16.49276155154449 0.0007539838177694738 4.410383466721049
45 1  17.734032376604283 0.0006432819724372515 4.407504493813128
46 1  19.096713903660724 0.000529372174409621 4.407629723657573
47 1  20.33796159660974 0.0006132670995742421 4.4107694542969975
48 1  21.70042304993375 0.0005903338120261966 4.41805871689371
49 1  22.94123096866858 0.0005285832378712371 4.428969133743814
50 1  24.304046854197274 0.00045225745734238647 4.447173095292278
51 1  25.544079718836944 0.0003100658703507577 4.47087876666927
52 1  26.907413458667865 0.00020363281342598245 4.508105221237374
53 1  28.145404250834925 5.644393453850088e-05 4.553915286542463
54 1  29.509681811134964 3.0446030981351798e-05 4.6205217070862545
55 1  30.743788579119528 0.00013448227127752538 4.69676764189624
56 1  32.11066990240904 0.00015087150455787024 4.799780187686721
57 1  33.33725396364672 0.00022386971615274737 4.908017367473789
58 1  34.71412081334714 0.00023733532948509126 5.044315767595683
59 1  35.923530985136125 0.00020072087596246838 5.173160524468142
60 2  36.99140021037397 0.0 5.29177249
}
Hamiltonian = DFTB {
  Scc = Yes
  ReadInitialCharges = No
  SlaterKosterFiles = {
    H-C = "../../Slater-Koster/3ob-3-1/H-C.skf"
    C-H = "../../Slater-Koster/3ob-3-1/C-H.skf"
    H-H = "../../Slater-Koster/3ob-3-1/H-H.skf"
    C-C = "../../Slater-Koster/3ob-3-1/C-C.skf"
  }
  MaxAngularMomentum = {
    H = "p"
    C = "p"
  }
  ThirdOrderFull = Yes
  MaxSCCIterations = 10000
  HubbardDerivs = {
    H = -0.1857
    C = -0.1492
  }
  Filling = Fermi {
    Temperature [kelvin] = 200.0000000000000000
  }
  SCCTolerance = 1.0000000000000001E-07
  Dispersion = MBD {
    KGRID = {
1 1 1
    }
    Beta = 0.83
    ReferenceSet = "TS"
    NOmegaGrid = 15
    KGridShift = 0.50000000000000000
    LogLevel = 0
  }
  PolynomialRepulsive = {}
  ShellResolvedSCC = No
  OldSKInterpolation = No
  RangeSeparated = None {}
  InitialCharges = {}
  ConvergentSCCOnly = Yes
  HCorrection = None {}
  SpinPolarisation = {}
  ElectricField = {}
  Solver = RelativelyRobust {}
  Charge = 0.0000000000000000
  OnSiteCorrection = {}
  Solvation = {}
  Electrostatics = GammaFunctional {}
  ThirdOrder = No
  Differentiation = FiniteDiff {
    Delta = 1.2207031250000000E-004
  }
  ForceEvaluation = "Traditional"
  Mixer = Broyden {
    MixingParameter = 0.20000000000000001
    InverseJacobiWeight = 1.0000000000000000E-002
    MinimalWeight = 1.0000000000000000
    MaximalWeight = 100000.00000000000
    WeightFactor = 1.0000000000000000E-002
  }
}
Options = {
  WriteChargesAsText = Yes
  WriteDetailedOut = Yes
  WriteAutotestTag = No
  WriteDetailedXML = No
  WriteResultsTag = No
  RestartFrequency = 20
  RandomSeed = 0
  WriteHS = No
  WriteRealHS = No
  MinimiseMemoryUsage = No
  ShowFoldedCoords = No
  TimingVerbosity = 1
}
Analysis = {
  CalculateForces = Yes
  ProjectStates = {}
  WriteEigenvectors = No
  WriteBandOut = Yes
  MullikenAnalysis = Yes
  WriteNetCharges = No
  AtomResolvedEnergies = No
}
ParserOptions = {
  ParserVersion = 12
  WriteHSDInput = Yes
  StopAfterParsing = No
  IgnoreUnprocessedNodes = No
}
Reks = None {}
Driver = {}
ExcitedState = {}
